wr=124;
nProviders=16;

cost_worker=[ 80 146 91 101 128 68 63 146 117 146 86 149 78 117 82 141 ];
available_workers=[ 29 12 10 15 25 50 45 47 10 46 14 36 28 27 26 38 ];
cost_contract=[ 2338 2417 1134 3424 2742 1250 3057 2342 1180 1221 1502 1178 1451 1351 3160 2494 ];
country=[ 7 12 15 17 12 12 11 4 10 20 7 13 14 16 18 11 ];
cost_1=5;
cost_2=7;
cost_3=150;
